NAME : tsp20_30.164.tour
COMMENT : Length = 164
COMMENT : Found by LKH [Keld Helsgaun]
TYPE : TOUR
DIMENSION : 20
TOUR_SECTION
1
3
9
4
11
20
13
2
8
15
17
7
18
6
14
19
12
10
5
16
-1
EOF
